decision_x1=[0,2];
decision_x2=[0,2];
decision_x3=[0,2];
decision_x4=[0,2];
decision_x5=[0,2];
decision_x6=[0,2];
decision_x7=[0,2];
decision_x8=[0,2];
decision_x9=[0,2];
decision_x10=[0,2];
decision_x11=[0,2];
decision_x12=[0,2];
random_y1=[0,2];
random_y2=[0,2];
random_y3=[0,2];
constraint_x4_x2=[
0,0,0.92|
0,1,8.5|
0,2,5.3|
1,0,0.85|
1,1,8.9|
1,2,2.6|
2,0,5.2|
2,1,1.8|
2,2,8.8|
];
constraint_x5_x2=[
0,0,5.3|
0,1,5.8|
0,2,0.072|
1,0,2|
1,1,7.3|
1,2,2.4|
2,0,7.9|
2,1,1.2|
2,2,4.9|
];
constraint_x5_x3=[
0,0,2.4|
0,1,6.2|
0,2,0.067|
1,0,5.8|
1,1,5|
1,2,4.2|
2,0,0.18|
2,1,4.4|
2,2,4.8|
];
constraint_x6_x1=[
0,0,1.3|
0,1,0.46|
0,2,9.6|
1,0,3.1|
1,1,1.2|
1,2,1.2|
2,0,1.4|
2,1,4.8|
2,2,1.7|
];
constraint_x6_x3=[
0,0,9.4|
0,1,0.18|
0,2,7.5|
1,0,3.6|
1,1,4.4|
1,2,5.5|
2,0,7.6|
2,1,8|
2,2,5.1|
];
constraint_x6_x4=[
0,0,7.3|
0,1,7|
0,2,7.9|
1,0,9.4|
1,1,4.5|
1,2,6|
2,0,5.2|
2,1,6.8|
2,2,7.4|
];
constraint_x7_x1=[
0,0,3.7|
0,1,1|
0,2,0.83|
1,0,4.6|
1,1,6.1|
1,2,6.3|
2,0,1.1|
2,1,1.9|
2,2,4.7|
];
constraint_x7_x4=[
0,0,9.3|
0,1,4.4|
0,2,0.47|
1,0,1.5|
1,1,7.4|
1,2,9.3|
2,0,6.5|
2,1,4.8|
2,2,1.3|
];
constraint_x7_x6=[
0,0,3.1|
0,1,8.6|
0,2,3.1|
1,0,8.6|
1,1,6.5|
1,2,4.5|
2,0,0.042|
2,1,8.8|
2,2,5.2|
];
constraint_x8_x2=[
0,0,8.5|
0,1,9.6|
0,2,7.9|
1,0,4|
1,1,1.5|
1,2,2.8|
2,0,0.061|
2,1,3.1|
2,2,2.4|
];
constraint_x8_x3=[
0,0,6.7|
0,1,6.7|
0,2,9.8|
1,0,5.9|
1,1,6.1|
1,2,3.8|
2,0,5.4|
2,1,7.3|
2,2,6.3|
];
constraint_x8_x4=[
0,0,0.74|
0,1,2.2|
0,2,1|
1,0,1.2|
1,1,3.8|
1,2,3.1|
2,0,5.9|
2,1,2.2|
2,2,6.4|
];
constraint_x8_x7=[
0,0,5.9|
0,1,1.1|
0,2,8.5|
1,0,6.5|
1,1,9.9|
1,2,4|
2,0,4.3|
2,1,5.4|
2,2,0.11|
];
constraint_x9_x4=[
0,0,1.5|
0,1,3.1|
0,2,6.3|
1,0,9.4|
1,1,1.2|
1,2,9.1|
2,0,4.1|
2,1,2.7|
2,2,0.28|
];
constraint_x9_x8=[
0,0,6.5|
0,1,0.79|
0,2,9.6|
1,0,8.8|
1,1,8|
1,2,6.2|
2,0,9.5|
2,1,2.9|
2,2,5|
];
constraint_x10_x1=[
0,0,2.1|
0,1,0.63|
0,2,6.2|
1,0,7|
1,1,4.6|
1,2,9.4|
2,0,7.2|
2,1,2.5|
2,2,9.5|
];
constraint_x10_x3=[
0,0,6.1|
0,1,3.6|
0,2,7.7|
1,0,9.4|
1,1,2.6|
1,2,2.1|
2,0,9.2|
2,1,7.6|
2,2,9.7|
];
constraint_x10_x4=[
0,0,6.6|
0,1,8.3|
0,2,4.9|
1,0,6.4|
1,1,9.9|
1,2,5.8|
2,0,5.7|
2,1,7.9|
2,2,3.3|
];
constraint_x10_x5=[
0,0,4.1|
0,1,0.94|
0,2,0.48|
1,0,6.7|
1,1,8.8|
1,2,2.7|
2,0,5.5|
2,1,0.97|
2,2,4.9|
];
constraint_x10_x7=[
0,0,9.4|
0,1,4.4|
0,2,0.0054|
1,0,7.3|
1,1,2.6|
1,2,9.4|
2,0,2.1|
2,1,8.6|
2,2,9.3|
];
constraint_x11_x1=[
0,0,7.3|
0,1,2.7|
0,2,0.27|
1,0,4.4|
1,1,2.7|
1,2,0.96|
2,0,1.8|
2,1,5.2|
2,2,3.9|
];
constraint_x11_x2=[
0,0,9.5|
0,1,7.3|
0,2,9.2|
1,0,0.96|
1,1,2.7|
1,2,0.62|
2,0,9.4|
2,1,6.4|
2,2,0.25|
];
constraint_x11_x3=[
0,0,7.6|
0,1,8.2|
0,2,7.9|
1,0,1.2|
1,1,9.4|
1,2,8.9|
2,0,5.3|
2,1,7.9|
2,2,4.1|
];
constraint_x11_x4=[
0,0,2.5|
0,1,10|
0,2,8.5|
1,0,2.7|
1,1,4.7|
1,2,4.3|
2,0,2.1|
2,1,0.091|
2,2,2.2|
];
constraint_x11_x5=[
0,0,2.1|
0,1,9.7|
0,2,4.2|
1,0,6|
1,1,7.6|
1,2,6.2|
2,0,0.28|
2,1,2.4|
2,2,8.5|
];
constraint_x11_x6=[
0,0,4.6|
0,1,2.3|
0,2,1.3|
1,0,2.5|
1,1,2.7|
1,2,7.7|
2,0,7.9|
2,1,9|
2,2,0.76|
];
constraint_x11_x7=[
0,0,2.8|
0,1,0.74|
0,2,8.6|
1,0,7.3|
1,1,7.5|
1,2,3.2|
2,0,4.8|
2,1,5.8|
2,2,2.3|
];
constraint_x11_x8=[
0,0,4.1|
0,1,0.0079|
0,2,5.6|
1,0,0.78|
1,1,4.6|
1,2,2.4|
2,0,7.5|
2,1,0.87|
2,2,6.3|
];
constraint_x11_x9=[
0,0,2.4|
0,1,2|
0,2,8.8|
1,0,3|
1,1,5.7|
1,2,0.35|
2,0,7.4|
2,1,1.9|
2,2,6.2|
];
constraint_x11_x10=[
0,0,4.2|
0,1,7.2|
0,2,6.4|
1,0,1.6|
1,1,2.6|
1,2,6.9|
2,0,1.3|
2,1,1.7|
2,2,1|
];
constraint_x12_x2=[
0,0,1.5|
0,1,8.7|
0,2,6.3|
1,0,1.9|
1,1,5.6|
1,2,4.7|
2,0,6.3|
2,1,8.2|
2,2,5.2|
];
constraint_x12_x4=[
0,0,2.3|
0,1,8.1|
0,2,2.5|
1,0,5.5|
1,1,7|
1,2,1.9|
2,0,9.4|
2,1,2.9|
2,2,2.2|
];
constraint_x12_x7=[
0,0,6.3|
0,1,9.4|
0,2,6.2|
1,0,5.3|
1,1,0.68|
1,2,7.4|
2,0,4.6|
2,1,9.9|
2,2,1.9|
];
constraint_x1_y1=[
0,0,6.8|
0,1,8|
0,2,1|
1,0,0.029|
1,1,9.4|
1,2,5.2|
2,0,6.9|
2,1,3|
2,2,5.9|
];
constraint_x2_y2=[
0,0,7.4|
0,1,7|
0,2,1.3|
1,0,8.9|
1,1,6.1|
1,2,5.8|
2,0,4.6|
2,1,5|
2,2,2.7|
];
constraint_x3_y3=[
0,0,1.8|
0,1,7.7|
0,2,4.8|
1,0,9.1|
1,1,8.6|
1,2,8.1|
2,0,2.4|
2,1,5.2|
2,2,7.9|
];
initial_distribution_y1=[0.28,0.045,0.67];
initial_distribution_y2=[0.48,0.42,0.098];
initial_distribution_y3=[0.58,0.41,0.009];
transition_y1=[
0.63,0.23,0.13|
0.42,0.37,0.21|
0.042,0.59,0.37|
];
transition_y2=[
0.33,0.54,0.13|
0.4,0.22,0.38|
0.067,0.5,0.44|
];
transition_y3=[
0.21,0.29,0.5|
0.4,0.12,0.48|
0.38,0.15,0.47|
];
